\ This file was automatically generated by Zimpl
\ set p := {1, 2, 3};
\ set m := {1, 2, 3};
\ set pm := p*m;
\ param T[m] := <1> 500, <2> 350, <3> 150;
\ param L[p] := <1> 30, <2> 12, <3> 15;
\ param TP[pm] := <1, 1> 9, <1,2> 3, <1, 3> 5,                 <2, 1> 5, <2,2> 4, <2, 3> 0,                 <3, 1> 3, <3,2> 0, 
\ <3, 3> 2;
\ param V3 :=  20;
\ var X[p] integer >= 0;
\ maximize lucro :     sum <px> in p : L[px] * X[px] ;
\ subto c1:        forall <mx> in m :          sum <px> in p : TP[px, mx] * X[px] <= T[mx];
\ subto c2:     X[3] <= 20;
\Problem name: file
Maximize
 lucro:  +30 X#1 +12 X#2 +15 X#3
Subject to
 c1_1:
  +3 X#3 +5 X#2 +9 X#1 <= 500
 c1_2:
  +4 X#2 +3 X#1 <= 350
 c1_3:
  +2 X#3 +5 X#1 <= 150
 c2_1:
  + X#3 <= 20
Bounds
 0 <= X#1 <= +inf
 0 <= X#2 <= +inf
 0 <= X#3 <= +inf
General
 X#1
 X#2
 X#3
End
